&CONTROL
    calculation   = "nscf"
    etot_conv_thr =  4.00000e-05
    forc_conv_thr =  1.00000e-04
    max_seconds   =  8.64000e+04
    outdir        = "./out/"
    prefix        = "Pure_TiO2"
    pseudo_dir    = "C:\Users\User\.burai\.pseudopot"
    restart_mode  = "from_scratch"
    tprnfor       = .TRUE.
    tstress       = .TRUE.
    verbosity     = "high"
/

&SYSTEM
    a                         =  3.78254e+00
    c                         =  2.92030e+01
    degauss                   =  1.00000e-02
    ecutrho                   =  4.00000e+02
    ecutwfc                   =  5.00000e+01
    hubbard_j0(1)             =  2.00000e-01
    hubbard_u(1)              =  8.00000e+00
    hubbard_u(2)              =  0.00000e+00
    ibrav                     = 6
    lda_plus_u                = .TRUE.
    nat                       = 12
    nbnd                      = 84
    nspin                     = 1
    ntyp                      = 2
    occupations               = "smearing"
    smearing                  = "marzari-vanderbilt"
    starting_magnetization(1) =  0.00000e+00
    starting_magnetization(2) =  2.00000e-01
/

&ELECTRONS
    conv_thr         =  1.00000e-06
    electron_maxstep = 200
    mixing_beta      =  4.00000e-01
    mixing_mode      = "local-TF"
    startingpot      = "atomic"
    startingwfc      = "atomic+random"
/

&DOS
    degauss =  1.00000e-02
    deltae  =  1.00000e-02
    emax    =  5.00000e+01
    emin    = -5.00000e+01
    ngauss  = 0
/

&PROJWFC
    degauss =  1.00000e-02
    deltae  =  1.00000e-02
    emax    =  5.00000e+01
    emin    = -5.00000e+01
    ngauss  = 0
/

K_POINTS {crystal}
5
  0.000000   0.000000   0.000000   1.000000
  0.015625   0.000000   0.000000   1.000000
  0.031250   0.000000   0.000000   1.000000
  0.046875   0.000000   0.000000   1.000000
  0.062500   0.000000   0.000000   1.000000

ATOMIC_SPECIES
O      15.99940  O.pbe-n-kjpaw_psl.0.1.UPF
Ti     47.86700  ti_pbe_v1.4.uspp.F.UPF

ATOMIC_POSITIONS {angstrom}
O       1.891270   0.000000  19.264663
O       0.000000   0.000000  17.693322
Ti      1.891270   0.000000  17.312833
O       1.891270   1.891270  16.801979
O       1.891270   0.000000  15.259957
Ti      1.891270   1.891270  14.909130
O       0.000000   1.891270  14.395527
O       1.891270   1.891270  12.815739
Ti      0.000000   1.891270  12.403755
O       0.000000   0.000000  11.991772
O       0.000000   1.891270  10.411983
Ti      0.000000   0.000000  10.000000


