&CONTROL
    pseudo_dir = "C:\Users\User\.burai\.pseudopot"
/

&SYSTEM
    a     =  3.78254e+00
    c     =  2.92030e+01
    ibrav = 6
    nat   = 12
    ntyp  = 2
/

ATOMIC_SPECIES
O      15.99940  O.pbe-rrkjus.UPF
Ti     47.86700  Ti.pbe-sp-van_ak.UPF

ATOMIC_POSITIONS {angstrom}
O       1.891270   0.000000  19.203038
O       0.000000   0.000000  17.623249
Ti      1.891270   0.000000  17.211266
O       1.891270   1.891270  16.799283
O       1.891270   0.000000  15.219494
Ti      1.891270   1.891270  14.807511
O       0.000000   1.891270  14.395527  0 0 0
O       1.891270   1.891270  12.815739  0 0 0
Ti      0.000000   1.891270  12.403755  0 0 0
O       0.000000   0.000000  11.991772  0 0 0
O       0.000000   1.891270  10.411983  0 0 0
Ti      0.000000   0.000000  10.000000  0 0 0


