&CONTROL
    calculation   = "scf"
    etot_conv_thr =  4.00000e-05
    forc_conv_thr =  1.00000e-04
    max_seconds   =  8.64000e+04
    outdir        = "./out/"
    prefix        = "Pure_titanium_dioxide"
    pseudo_dir    = "C:\Users\User\.burai\.pseudopot"
    restart_mode  = "from_scratch"
    tprnfor       = .TRUE.
    tstress       = .TRUE.
    verbosity     = "high"
/

&SYSTEM
    a                         =  3.78254e+00
    c                         =  2.92030e+01
    degauss                   =  1.00000e-02
    ecutrho                   =  2.50000e+02
    ecutwfc                   =  2.50000e+01
    hubbard_j0(1)             =  2.00000e-01
    hubbard_u(1)              =  8.50000e+00
    hubbard_u(2)              =  0.00000e+00
    ibrav                     = 6
    lda_plus_u                = .TRUE.
    nat                       = 12
    nspin                     = 1
    ntyp                      = 2
    occupations               = "smearing"
    smearing                  = "marzari-vanderbilt"
    starting_magnetization(1) =  0.00000e+00
    starting_magnetization(2) =  2.00000e-01
/

&ELECTRONS
    conv_thr         =  1.00000e-06
    electron_maxstep = 200
    mixing_beta      =  4.00000e-01
    mixing_mode      = "local-TF"
    startingpot      = "atomic"
    startingwfc      = "atomic+random"
/

K_POINTS {automatic}
 6  6  6  1 1 1

ATOMIC_SPECIES
O      15.99940  O.pbe-rrkjus.UPF
Ti     47.86700  Ti.pbe-sp-van_ak.UPF

ATOMIC_POSITIONS {angstrom}
O       1.891270   0.000000  19.203038
O       0.000000   0.000000  17.623249
Ti      1.891270   0.000000  17.211266
O       1.891270   1.891270  16.799283
O       1.891270   0.000000  15.219494
Ti      1.891270   1.891270  14.807511
O       0.000000   1.891270  14.395527  0 0 0
O       1.891270   1.891270  12.815739  0 0 0
Ti      0.000000   1.891270  12.403755  0 0 0
O       0.000000   0.000000  11.991772  0 0 0
O       0.000000   1.891270  10.411983  0 0 0
Ti      0.000000   0.000000  10.000000  0 0 0


